c Result of efficient AIG-to-CNF conversion using package CNF
p cnf 557 1968
2 3 -29 -156 -331 0
-2 -3 0
-2 331 0
-2 156 0
-2 29 0
3 -4 -550 -6 0
-3 4 0
-3 550 0
-3 6 0
4 -532 5 0
-4 532 0
-4 -5 0
5 535 536 537 0
-5 -535 0
-5 -537 0
-5 -536 0
6 -4 -549 -7 0
-6 4 0
-6 549 0
-6 7 0
7 -4 -548 -8 0
-7 4 0
-7 548 0
-7 8 0
8 -4 -547 -9 0
-8 4 0
-8 547 0
-8 9 0
9 -4 -546 -10 0
-9 4 0
-9 546 0
-9 10 0
10 -4 -545 -11 0
-10 4 0
-10 545 0
-10 11 0
11 -4 -544 -12 0
-11 4 0
-11 544 0
-11 12 0
12 -4 -543 13 0
-12 4 0
-12 543 0
-12 -13 0
13 14 15 0
-13 -14 0
-13 -15 0
14 -4 -542 -556 0
-14 4 0
-14 542 0
-14 556 0
15 16 -27 0
-15 -16 0
-15 27 0
16 17 18 0
-16 -17 0
-16 -18 0
17 -4 -541 -555 0
-17 4 0
-17 541 0
-17 555 0
18 19 -25 0
-18 -19 0
-18 25 0
19 20 21 0
-19 -20 0
-19 -21 0
20 -4 -540 -554 0
-20 4 0
-20 540 0
-20 554 0
21 -22 -23 0
-21 22 0
-21 23 0
22 -4 -539 -553 0
-22 4 0
-22 539 0
-22 553 0
23 554 -24 0
23 -554 24 0
-23 -554 -24 0
-23 554 24 0
24 -4 -540 0
-24 4 0
-24 540 0
25 555 -26 0
25 -555 26 0
-25 -555 -26 0
-25 555 26 0
26 -4 -541 0
-26 4 0
-26 541 0
27 556 -28 0
27 -556 28 0
-27 -556 -28 0
-27 556 28 0
28 -4 -542 0
-28 4 0
-28 542 0
29 30 34 100 103 0
-29 -103 0
-29 -100 0
-29 -30 0
-29 -34 0
30 -31 -549 -32 0
-30 31 0
-30 549 0
-30 32 0
31 -533 5 0
31 -532 -534 -5 0
-31 533 5 0
-31 532 -5 0
-31 534 -5 0
32 33 -6 0
32 -33 6 0
-32 -33 -6 0
-32 33 6 0
33 -4 -550 0
-33 4 0
-33 550 0
34 35 -98 0
-34 -35 0
-34 98 0
35 36 39 0
-35 -36 0
-35 -39 0
36 -31 -548 -37 0
-36 31 0
-36 548 0
-36 37 0
37 38 -7 0
37 -38 7 0
-37 -38 -7 0
-37 38 7 0
38 -4 -549 0
-38 4 0
-38 549 0
39 40 -96 0
-39 -40 0
-39 96 0
40 41 44 0
-40 -41 0
-40 -44 0
41 -31 -547 -42 0
-41 31 0
-41 547 0
-41 42 0
42 43 -8 0
42 -43 8 0
-42 -43 -8 0
-42 43 8 0
43 -4 -548 0
-43 4 0
-43 548 0
44 45 -94 0
-44 -45 0
-44 94 0
45 46 49 0
-45 -46 0
-45 -49 0
46 -31 -546 -47 0
-46 31 0
-46 546 0
-46 47 0
47 48 -9 0
47 -48 9 0
-47 -48 -9 0
-47 48 9 0
48 -4 -547 0
-48 4 0
-48 547 0
49 50 -92 0
-49 -50 0
-49 92 0
50 51 54 0
-50 -51 0
-50 -54 0
51 -31 -545 -52 0
-51 31 0
-51 545 0
-51 52 0
52 53 -10 0
52 -53 10 0
-52 -53 -10 0
-52 53 10 0
53 -4 -546 0
-53 4 0
-53 546 0
54 55 -90 0
-54 -55 0
-54 90 0
55 56 59 0
-55 -56 0
-55 -59 0
56 -31 -544 -57 0
-56 31 0
-56 544 0
-56 57 0
57 58 -11 0
57 -58 11 0
-57 -58 -11 0
-57 58 11 0
58 -4 -545 0
-58 4 0
-58 545 0
59 60 -88 0
-59 -60 0
-59 88 0
60 61 64 0
-60 -61 0
-60 -64 0
61 -31 -543 -62 0
-61 31 0
-61 543 0
-61 62 0
62 63 -12 0
62 -63 12 0
-62 -63 -12 0
-62 63 12 0
63 -4 -544 0
-63 4 0
-63 544 0
64 65 -86 0
-64 -65 0
-64 86 0
65 66 69 0
-65 -66 0
-65 -69 0
66 -31 -542 -67 0
-66 31 0
-66 542 0
-66 67 0
67 -68 -13 0
67 68 13 0
-67 68 -13 0
-67 -68 13 0
68 -4 -543 0
-68 4 0
-68 543 0
69 70 -84 0
-69 -70 0
-69 84 0
70 71 73 0
-70 -71 0
-70 -73 0
71 -31 -541 -72 0
-71 31 0
-71 541 0
-71 72 0
72 -16 -27 0
72 16 27 0
-72 16 -27 0
-72 -16 27 0
73 74 -82 0
-73 -74 0
-73 82 0
74 75 77 0
-74 -75 0
-74 -77 0
75 -31 -540 -76 0
-75 31 0
-75 540 0
-75 76 0
76 -19 -25 0
76 19 25 0
-76 19 -25 0
-76 -19 25 0
77 -78 -80 0
-77 78 0
-77 80 0
78 -31 -539 -79 0
-78 31 0
-78 539 0
-78 79 0
79 22 -23 0
79 -22 23 0
-79 -22 -23 0
-79 22 23 0
80 76 -81 0
80 -76 81 0
-80 -76 -81 0
-80 76 81 0
81 -31 -540 0
-81 31 0
-81 540 0
82 72 -83 0
82 -72 83 0
-82 -72 -83 0
-82 72 83 0
83 -31 -541 0
-83 31 0
-83 541 0
84 67 -85 0
84 -67 85 0
-84 -67 -85 0
-84 67 85 0
85 -31 -542 0
-85 31 0
-85 542 0
86 62 -87 0
86 -62 87 0
-86 -62 -87 0
-86 62 87 0
87 -31 -543 0
-87 31 0
-87 543 0
88 57 -89 0
88 -57 89 0
-88 -57 -89 0
-88 57 89 0
89 -31 -544 0
-89 31 0
-89 544 0
90 52 -91 0
90 -52 91 0
-90 -52 -91 0
-90 52 91 0
91 -31 -545 0
-91 31 0
-91 545 0
92 47 -93 0
92 -47 93 0
-92 -47 -93 0
-92 47 93 0
93 -31 -546 0
-93 31 0
-93 546 0
94 42 -95 0
94 -42 95 0
-94 -42 -95 0
-94 42 95 0
95 -31 -547 0
-95 31 0
-95 547 0
96 37 -97 0
96 -37 97 0
-96 -37 -97 0
-96 37 97 0
97 -31 -548 0
-97 31 0
-97 548 0
98 32 -99 0
98 -32 99 0
-98 -32 -99 0
-98 32 99 0
99 -31 -549 0
-99 31 0
-99 549 0
100 -101 -548 -102 0
-100 101 0
-100 548 0
-100 102 0
101 -533 -534 0
101 -534 5 0
101 -532 -533 -5 0
-101 533 -5 0
-101 534 5 0
-101 532 534 0
102 -35 -98 0
102 35 98 0
-102 35 -98 0
-102 -35 98 0
103 104 -154 0
-103 -104 0
-103 154 0
104 105 107 0
-104 -105 0
-104 -107 0
105 -101 -547 -106 0
-105 101 0
-105 547 0
-105 106 0
106 -40 -96 0
106 40 96 0
-106 40 -96 0
-106 -40 96 0
107 108 -152 0
-107 -108 0
-107 152 0
108 109 111 0
-108 -109 0
-108 -111 0
109 -101 -546 -110 0
-109 101 0
-109 546 0
-109 110 0
110 -45 -94 0
110 45 94 0
-110 45 -94 0
-110 -45 94 0
111 112 -150 0
-111 -112 0
-111 150 0
112 113 115 0
-112 -113 0
-112 -115 0
113 -101 -545 -114 0
-113 101 0
-113 545 0
-113 114 0
114 -50 -92 0
114 50 92 0
-114 50 -92 0
-114 -50 92 0
115 116 -148 0
-115 -116 0
-115 148 0
116 117 119 0
-116 -117 0
-116 -119 0
117 -101 -544 -118 0
-117 101 0
-117 544 0
-117 118 0
118 -55 -90 0
118 55 90 0
-118 55 -90 0
-118 -55 90 0
119 120 -146 0
-119 -120 0
-119 146 0
120 121 123 0
-120 -121 0
-120 -123 0
121 -101 -543 -122 0
-121 101 0
-121 543 0
-121 122 0
122 -60 -88 0
122 60 88 0
-122 60 -88 0
-122 -60 88 0
123 124 -144 0
-123 -124 0
-123 144 0
124 125 127 0
-124 -125 0
-124 -127 0
125 -101 -542 -126 0
-125 101 0
-125 542 0
-125 126 0
126 -65 -86 0
126 65 86 0
-126 65 -86 0
-126 -65 86 0
127 128 -142 0
-127 -128 0
-127 142 0
128 129 131 0
-128 -129 0
-128 -131 0
129 -101 -541 -130 0
-129 101 0
-129 541 0
-129 130 0
130 -70 -84 0
130 70 84 0
-130 70 -84 0
-130 -70 84 0
131 132 -140 0
-131 -132 0
-131 140 0
132 133 135 0
-132 -133 0
-132 -135 0
133 -101 -540 -134 0
-133 101 0
-133 540 0
-133 134 0
134 -74 -82 0
134 74 82 0
-134 74 -82 0
-134 -74 82 0
135 -136 -138 0
-135 136 0
-135 138 0
136 -101 -539 -137 0
-136 101 0
-136 539 0
-136 137 0
137 78 -80 0
137 -78 80 0
-137 -78 -80 0
-137 78 80 0
138 134 -139 0
138 -134 139 0
-138 -134 -139 0
-138 134 139 0
139 -101 -540 0
-139 101 0
-139 540 0
140 130 -141 0
140 -130 141 0
-140 -130 -141 0
-140 130 141 0
141 -101 -541 0
-141 101 0
-141 541 0
142 126 -143 0
142 -126 143 0
-142 -126 -143 0
-142 126 143 0
143 -101 -542 0
-143 101 0
-143 542 0
144 122 -145 0
144 -122 145 0
-144 -122 -145 0
-144 122 145 0
145 -101 -543 0
-145 101 0
-145 543 0
146 118 -147 0
146 -118 147 0
-146 -118 -147 0
-146 118 147 0
147 -101 -544 0
-147 101 0
-147 544 0
148 114 -149 0
148 -114 149 0
-148 -114 -149 0
-148 114 149 0
149 -101 -545 0
-149 101 0
-149 545 0
150 110 -151 0
150 -110 151 0
-150 -110 -151 0
-150 110 151 0
151 -101 -546 0
-151 101 0
-151 546 0
152 106 -153 0
152 -106 153 0
-152 -106 -153 0
-152 106 153 0
153 -101 -547 0
-153 101 0
-153 547 0
154 102 -155 0
154 -102 155 0
-154 -102 -155 0
-154 102 155 0
155 -101 -548 0
-155 101 0
-155 548 0
156 157 159 -198 -307 0
-156 -157 0
-156 307 0
-156 198 0
-156 -159 0
157 -547 -158 0
-157 547 0
-157 158 0
158 -104 -154 0
158 104 154 0
-158 104 -154 0
-158 -104 154 0
159 160 -197 0
-159 -160 0
-159 197 0
160 161 163 0
-160 -161 0
-160 -163 0
161 -546 -162 0
-161 546 0
-161 162 0
162 -108 -152 0
162 108 152 0
-162 108 -152 0
-162 -108 152 0
163 164 -196 0
-163 -164 0
-163 196 0
164 165 167 0
-164 -165 0
-164 -167 0
165 -545 -166 0
-165 545 0
-165 166 0
166 -112 -150 0
166 112 150 0
-166 112 -150 0
-166 -112 150 0
167 168 -195 0
-167 -168 0
-167 195 0
168 169 171 0
-168 -169 0
-168 -171 0
169 -544 -170 0
-169 544 0
-169 170 0
170 -116 -148 0
170 116 148 0
-170 116 -148 0
-170 -116 148 0
171 172 -194 0
-171 -172 0
-171 194 0
172 173 175 0
-172 -173 0
-172 -175 0
173 -543 -174 0
-173 543 0
-173 174 0
174 -120 -146 0
174 120 146 0
-174 120 -146 0
-174 -120 146 0
175 176 -193 0
-175 -176 0
-175 193 0
176 177 179 0
-176 -177 0
-176 -179 0
177 -542 -178 0
-177 542 0
-177 178 0
178 -124 -144 0
178 124 144 0
-178 124 -144 0
-178 -124 144 0
179 180 -192 0
-179 -180 0
-179 192 0
180 181 183 0
-180 -181 0
-180 -183 0
181 -541 -182 0
-181 541 0
-181 182 0
182 -128 -142 0
182 128 142 0
-182 128 -142 0
-182 -128 142 0
183 184 -191 0
-183 -184 0
-183 191 0
184 185 187 0
-184 -185 0
-184 -187 0
185 -540 -186 0
-185 540 0
-185 186 0
186 -132 -140 0
186 132 140 0
-186 132 -140 0
-186 -132 140 0
187 -188 -190 0
-187 188 0
-187 190 0
188 -539 -189 0
-188 539 0
-188 189 0
189 136 -138 0
189 -136 138 0
-189 -136 -138 0
-189 136 138 0
190 540 -186 0
190 -540 186 0
-190 -540 -186 0
-190 540 186 0
191 541 -182 0
191 -541 182 0
-191 -541 -182 0
-191 541 182 0
192 542 -178 0
192 -542 178 0
-192 -542 -178 0
-192 542 178 0
193 543 -174 0
193 -543 174 0
-193 -543 -174 0
-193 543 174 0
194 544 -170 0
194 -544 170 0
-194 -544 -170 0
-194 544 170 0
195 545 -166 0
195 -545 166 0
-195 -545 -166 0
-195 545 166 0
196 546 -162 0
196 -546 162 0
-196 -546 -162 0
-196 546 162 0
197 547 -158 0
197 -547 158 0
-197 -547 -158 0
-197 547 158 0
198 199 283 -284 -295 0
198 -199 -283 -284 -295 0
-198 295 0
-198 -199 283 0
-198 284 0
-198 199 -283 0
199 -200 270 0
-199 200 0
-199 -270 0
200 -201 254 0
200 254 -266 0
-200 -254 0
-200 201 266 0
201 202 -249 0
201 -202 249 0
-201 -202 -249 0
-201 202 249 0
202 -203 -242 0
202 203 242 0
-202 203 -242 0
-202 -203 242 0
203 204 229 0
-203 -204 0
-203 -229 0
204 -205 217 0
-204 205 0
-204 -217 0
205 -206 -212 0
205 206 212 0
-205 206 -212 0
-205 -206 212 0
206 -207 209 0
-206 207 0
-206 -209 0
207 -527 -208 0
207 -525 526 -208 0
-207 208 0
-207 -526 527 0
-207 525 527 0
208 528 529 530 0
-208 -528 0
-208 -530 0
-208 -529 0
209 -210 211 0
-209 210 0
-209 -211 0
210 528 -529 0
210 -528 529 0
210 528 530 0
-210 -528 -529 0
-210 528 529 -530 0
211 -525 527 -208 0
211 -526 527 -208 0
-211 208 0
-211 -527 0
-211 525 526 0
212 213 0
-212 -213 0
213 214 -215 0
-213 -214 0
-213 215 0
214 525 526 527 -208 0
-214 208 0
-214 -527 0
-214 -525 0
-214 -526 0
215 -530 -216 0
215 530 216 0
-215 530 -216 0
-215 -530 216 0
216 -528 -529 0
-216 528 0
-216 529 0
217 -218 -223 0
217 218 223 0
-217 218 -223 0
-217 -218 223 0
218 -219 220 0
-218 219 0
-218 -220 0
219 -534 -5 0
219 -532 533 -5 0
-219 5 0
-219 -533 534 0
-219 532 534 0
220 -221 222 0
-220 221 0
-220 -222 0
221 535 -536 0
221 -535 536 0
221 535 537 0
-221 -535 -536 0
-221 535 536 -537 0
222 -532 534 -5 0
222 -533 534 -5 0
-222 5 0
-222 -534 0
-222 532 533 0
223 224 0
-223 -224 0
224 225 -227 0
-224 -225 0
-224 227 0
225 -5 -226 0
-225 5 0
-225 226 0
226 532 533 534 0
-226 -532 0
-226 -534 0
-226 -533 0
227 -537 -228 0
227 537 228 0
-227 537 -228 0
-227 -537 228 0
228 -535 -536 0
-228 535 0
-228 536 0
229 230 -241 0
-229 -230 0
-229 241 0
230 231 236 0
-230 -231 0
-230 -236 0
231 -232 234 0
-231 232 0
-231 -234 0
232 -207 -233 0
232 207 233 0
-232 207 -233 0
-232 -207 233 0
233 209 0
-233 -209 0
234 -219 -235 0
234 219 235 0
-234 219 -235 0
-234 -219 235 0
235 220 0
-235 -220 0
236 237 -240 0
-236 -237 0
-236 240 0
237 -238 239 0
-237 238 0
-237 -239 0
238 -528 207 0
238 -208 207 0
-238 -207 0
-238 528 208 0
239 -535 219 0
239 -5 219 0
-239 -219 0
-239 535 5 0
240 -232 -234 0
240 232 234 0
-240 232 -234 0
-240 -232 234 0
241 -205 -217 0
241 205 217 0
-241 205 -217 0
-241 -205 217 0
242 -243 -246 0
242 243 246 0
-242 243 -246 0
-242 -243 246 0
243 244 -245 0
243 -244 245 0
-243 -244 -245 0
-243 244 245 0
244 530 216 0
-244 -530 0
-244 -216 0
245 -206 213 0
-245 206 0
-245 -213 0
246 247 -248 0
246 -247 248 0
-246 -247 -248 0
-246 247 248 0
247 537 228 0
-247 -537 0
-247 -228 0
248 -218 224 0
-248 218 0
-248 -224 0
249 -250 -251 0
-249 250 0
-249 251 0
250 -230 -241 0
250 230 241 0
-250 230 -241 0
-250 -230 241 0
251 252 -253 0
-251 -252 0
-251 253 0
252 -238 -239 0
252 238 239 0
-252 238 -239 0
-252 -238 239 0
253 -237 -240 0
253 237 240 0
-253 237 -240 0
-253 -237 240 0
254 255 -263 0
254 -255 263 0
-254 -255 -263 0
-254 255 263 0
255 -257 258 0
255 256 258 0
-255 -258 0
-255 -256 257 0
256 -530 245 0
256 -216 245 0
-256 -245 0
-256 530 216 0
257 -537 248 0
257 -228 248 0
-257 -248 0
-257 537 228 0
258 259 -262 0
-258 -259 0
-258 262 0
259 260 261 0
-259 -260 0
-259 -261 0
260 -243 246 0
-260 243 0
-260 -246 0
261 203 -242 0
-261 -203 0
-261 242 0
262 -256 -257 0
262 256 257 0
-262 256 -257 0
-262 -256 257 0
263 -264 -265 0
-263 264 0
-263 265 0
264 -259 -262 0
264 259 262 0
-264 259 -262 0
-264 -259 262 0
265 -202 -249 0
-265 202 0
-265 249 0
266 254 -267 0
266 264 -265 254 0
266 -264 265 254 0
-266 -254 0
-266 264 265 267 0
-266 -264 -265 267 0
267 -269 -201 0
267 -268 -201 0
-267 201 0
-267 268 269 0
268 -252 -253 0
268 252 253 0
-268 252 -253 0
-268 -252 253 0
269 250 -251 0
269 -250 251 0
-269 -250 -251 0
-269 250 251 0
270 -271 272 0
270 271 -277 0
-270 -271 -272 0
-270 271 277 0
271 -269 254 266 0
-271 269 0
-271 -266 0
-271 -254 0
272 273 -274 0
-272 -273 0
-272 274 0
273 -268 254 266 0
-273 268 0
-273 -266 0
-273 -254 0
274 -275 276 0
-274 275 0
-274 -276 0
275 -525 208 0
-275 525 0
-275 -208 0
276 -252 254 0
276 254 -266 0
-276 -254 0
-276 252 266 0
277 -273 -278 0
277 273 281 0
-277 -273 278 0
-277 273 -281 0
278 279 -276 0
278 280 276 0
278 -214 -276 0
-278 -280 276 0
-278 214 -279 -276 0
279 -526 208 0
279 -525 -527 -208 0
-279 526 208 0
-279 525 -208 0
-279 527 -208 0
280 -526 -527 0
280 -527 208 0
280 -525 -526 -208 0
-280 526 -208 0
-280 527 208 0
-280 525 527 0
281 -282 -276 0
-281 282 0
-281 276 0
282 208 0
282 -527 0
282 -525 0
282 -526 0
-282 525 526 527 -208 0
283 -160 -197 0
283 160 197 0
-283 160 -197 0
-283 -160 197 0
284 -285 287 -552 293 0
284 285 -287 552 -293 0
284 285 287 552 293 0
284 -285 -287 -552 -293 0
-284 -285 552 0
-284 285 -552 0
-284 287 -293 0
-284 -287 293 0
285 200 -286 0
-285 -200 0
-285 286 0
286 271 -272 0
-286 -271 0
-286 272 0
287 200 -288 0
-287 -200 0
-287 288 0
288 271 -289 0
-288 -271 0
-288 289 0
289 273 290 0
-289 -273 0
-289 -290 0
290 291 -276 0
290 292 276 0
290 -214 -276 0
-290 -292 276 0
-290 214 -291 -276 0
291 -525 208 0
-291 525 0
-291 -208 0
292 -526 208 0
292 -525 -527 -208 0
-292 526 208 0
-292 525 -208 0
-292 527 -208 0
293 553 -294 0
293 -553 294 0
-293 -553 -294 0
-293 553 294 0
294 -4 -539 0
-294 4 0
-294 539 0
295 296 -300 -305 -306 0
295 296 300 -305 306 0
295 -296 -300 305 -306 0
295 -296 300 305 306 0
-295 -296 -305 0
-295 296 305 0
-295 300 -306 0
-295 -300 306 0
296 200 297 0
296 -200 298 0
296 271 200 0
-296 -200 -298 0
-296 -271 200 -297 0
297 -273 -281 0
-297 273 0
-297 281 0
298 271 299 0
-298 -271 0
-298 -299 0
299 -273 274 0
299 273 -278 0
-299 -273 -274 0
-299 273 278 0
300 -200 -301 0
-300 200 0
-300 301 0
301 271 302 0
-301 -271 0
-301 -302 0
302 -273 -290 0
302 273 -303 0
-302 273 303 0
-302 -273 290 0
303 280 -276 0
303 -214 276 0
303 -304 276 0
-303 -280 -276 0
-303 214 304 276 0
304 525 526 527 -208 0
-304 208 0
-304 -527 0
-304 -525 0
-304 -526 0
305 -168 -195 0
305 168 195 0
-305 168 -195 0
-305 -168 195 0
306 -164 -196 0
306 164 196 0
-306 164 -196 0
-306 -164 196 0
307 -308 -315 -321 -326 0
-307 326 0
-307 308 0
-307 321 0
-307 315 0
308 -309 310 -311 313 0
308 309 -310 311 -313 0
308 309 310 311 313 0
308 -309 -310 -311 -313 0
-308 -309 311 0
-308 309 -311 0
-308 310 -313 0
-308 -310 313 0
309 200 -298 0
-309 -200 0
-309 298 0
310 200 -301 0
-310 -200 0
-310 301 0
311 79 -312 0
311 -79 312 0
-311 -79 -312 0
-311 79 312 0
312 -31 -539 0
-312 31 0
-312 539 0
313 137 -314 0
313 -137 314 0
-313 -137 -314 0
-313 137 314 0
314 -101 -539 0
-314 101 0
-314 539 0
315 -316 317 -319 320 0
315 316 -317 319 -320 0
315 316 317 319 320 0
315 -316 -317 -319 -320 0
-315 -316 319 0
-315 316 -319 0
-315 317 -320 0
-315 -317 320 0
316 200 270 0
-316 -200 0
-316 -270 0
317 271 200 -318 0
317 -271 200 -289 0
-317 -200 0
-317 -271 289 0
-317 271 318 0
318 -273 303 0
-318 273 0
-318 -303 0
319 539 -189 0
319 -539 189 0
-319 -539 -189 0
-319 539 189 0
320 188 -190 0
320 -188 190 0
-320 -188 -190 0
-320 188 190 0
321 -322 323 -324 325 0
321 322 -323 324 -325 0
321 322 323 324 325 0
321 -322 -323 -324 -325 0
-321 -322 324 0
-321 322 -324 0
-321 323 -325 0
-321 -323 325 0
322 271 200 -297 0
322 -271 200 299 0
-322 -200 0
-322 -271 -299 0
-322 271 297 0
323 -271 200 302 0
-323 271 0
-323 -302 0
-323 -200 0
324 -184 -191 0
324 184 191 0
-324 184 -191 0
-324 -184 191 0
325 -180 -192 0
325 180 192 0
-325 180 -192 0
-325 -180 192 0
326 -327 328 329 -330 0
326 327 328 -329 -330 0
326 327 -328 -329 330 0
326 -327 -328 329 330 0
-326 -327 -329 0
-326 327 329 0
-326 328 330 0
-326 -328 -330 0
327 200 -277 0
327 -200 286 0
327 271 200 0
-327 -200 -286 0
-327 -271 200 277 0
328 200 318 0
328 -200 288 0
328 271 200 0
-328 -200 -288 0
-328 -271 200 -318 0
329 -176 -193 0
329 176 193 0
-329 176 -193 0
-329 -176 193 0
330 -172 -194 0
330 172 194 0
-330 172 -194 0
-330 -172 194 0
331 556 336 -338 0
331 -332 -336 -338 0
-331 338 0
-331 -556 336 0
-331 332 -336 0
332 -333 -335 0
332 555 335 0
-332 -555 335 0
-332 333 -335 0
333 554 334 0
333 -4 553 -334 0
-333 4 -334 0
-333 -554 334 0
-333 -553 -334 0
334 -31 -554 0
334 31 554 0
-334 31 -554 0
-334 -31 554 0
335 -101 -555 0
335 101 555 0
-335 101 -555 0
-335 -101 555 0
336 337 0
-336 -337 0
337 556 0
-337 -556 0
338 339 341 -493 0
338 -340 341 -493 0
-338 493 0
-338 -341 0
-338 -339 340 0
339 -521 -522 -523 0
-339 521 0
-339 522 0
-339 523 0
340 518 519 520 0
-340 -518 0
-340 -520 0
-340 -519 0
341 456 -468 477 0
341 342 456 -468 0
-341 468 0
-341 -456 0
-341 -342 -477 0
342 -343 -455 0
-342 343 0
-342 455 0
343 344 451 0
343 527 -451 0
-343 -344 451 0
-343 -527 -451 0
344 214 254 -345 0
344 -527 214 -254 0
-344 -214 0
-344 254 345 0
-344 527 -254 0
345 -346 449 0
-345 346 0
-345 -449 0
346 347 446 0
-346 -347 0
-346 -446 0
347 -348 -431 0
347 348 431 0
-347 348 -431 0
-347 -348 431 0
348 349 -420 0
-348 -349 0
-348 420 0
349 350 -415 0
349 350 -416 0
-349 -350 0
-349 415 416 0
350 408 411 0
350 -351 408 0
-350 -408 0
-350 351 -411 0
351 352 -401 0
351 -352 401 0
-351 -352 -401 0
-351 352 401 0
352 -257 -353 0
352 257 353 0
-352 257 -353 0
-352 -257 353 0
353 246 -354 0
-353 -246 0
-353 354 0
354 355 391 0
-354 -355 0
-354 -391 0
355 -217 356 0
-355 217 0
-355 -356 0
356 -357 -378 -387 0
-356 357 0
-356 378 0
-356 387 0
357 555 -358 0
357 358 368 -375 0
357 358 -368 375 0
-357 -555 -358 0
-357 358 368 375 0
-357 358 -368 -375 0
358 556 359 365 0
358 539 556 359 0
-358 -359 0
-358 -556 0
-358 -539 -365 0
359 101 362 -363 0
359 -360 -362 -363 0
-359 363 0
-359 -101 362 0
-359 360 -362 0
360 31 361 0
360 4 -552 -361 0
-360 552 -361 0
-360 -31 361 0
-360 -4 -361 0
361 -31 -553 0
361 31 553 0
-361 31 -553 0
-361 -31 553 0
362 -101 -554 0
362 101 554 0
-362 101 -554 0
-362 -101 554 0
363 364 0
-363 -364 0
364 555 0
-364 -555 0
365 556 -366 -363 -367 0
-365 -556 0
-365 367 0
-365 363 0
-365 366 0
366 -4 -552 0
366 4 552 0
-366 4 -552 0
-366 -4 552 0
367 -361 -362 0
-367 361 0
-367 362 0
368 369 372 0
-368 -369 0
-368 -372 0
369 -31 -370 0
-369 31 0
-369 370 0
370 -554 -371 0
370 554 371 0
-370 554 -371 0
-370 -554 371 0
371 552 553 0
-371 -552 0
-371 -553 0
372 -373 -374 0
-372 373 0
-372 374 0
373 -4 552 -553 0
373 -4 -552 553 0
-373 4 0
-373 -552 -553 0
-373 552 553 0
374 31 -370 0
374 -31 370 0
-374 -31 -370 0
-374 31 370 0
375 101 -376 0
375 -101 376 0
-375 -101 -376 0
-375 101 376 0
376 -555 -377 0
376 555 377 0
-376 555 -377 0
-376 -555 377 0
377 552 553 554 0
-377 -552 0
-377 -554 0
-377 -553 0
378 379 0
-378 -379 0
379 358 -380 -383 0
379 358 380 383 0
-379 -358 0
-379 -380 383 0
-379 380 -383 0
380 381 382 0
-380 -381 0
-380 -382 0
381 -101 -376 0
-381 101 0
-381 376 0
382 368 -375 0
-382 -368 0
-382 375 0
383 384 0
-383 -384 0
384 -385 0
-384 385 0
385 -556 -386 0
385 556 386 0
-385 556 -386 0
-385 -556 386 0
386 555 -377 0
-386 -555 0
-386 377 0
387 -388 -390 0
-387 388 0
-387 390 0
388 553 -358 0
388 -4 358 -389 0
388 4 358 389 0
-388 -553 -358 0
-388 4 358 -389 0
-388 -4 358 389 0
389 552 -553 0
389 -552 553 0
-389 -552 -553 0
-389 552 553 0
390 554 -358 0
390 358 373 374 0
390 358 -373 -374 0
-390 -554 -358 0
-390 358 373 -374 0
-390 358 -373 374 0
391 392 -400 0
-391 -392 0
-391 400 0
392 393 395 0
-392 -393 0
-392 -395 0
393 -234 394 0
-393 234 0
-393 -394 0
394 -357 -378 387 0
-394 357 0
-394 378 0
-394 -387 0
395 396 -399 0
-395 -396 0
-395 399 0
396 -239 -397 0
-396 239 0
-396 397 0
397 357 -378 0
397 -390 -378 398 0
-397 378 0
-397 -357 -398 0
-397 390 -357 0
398 -552 -388 0
-398 552 0
-398 388 0
399 -234 -394 0
399 234 394 0
-399 234 -394 0
-399 -234 394 0
400 -217 -356 0
400 217 356 0
-400 217 -356 0
-400 -217 356 0
401 -402 -403 0
-401 402 0
-401 403 0
402 246 -354 0
402 -246 354 0
-402 -246 -354 0
-402 246 354 0
403 -404 405 0
-403 404 0
-403 -405 0
404 -392 -400 0
404 392 400 0
-404 392 -400 0
-404 -392 400 0
405 -406 407 0
-405 406 0
-405 -407 0
406 239 -397 0
406 -239 397 0
-406 -239 -397 0
-406 239 397 0
407 -396 -399 0
407 396 399 0
-407 396 -399 0
-407 -396 399 0
408 409 410 0
-408 -409 0
-408 -410 0
409 -257 354 0
-409 257 0
-409 -354 0
410 -352 -401 0
-410 352 0
-410 401 0
411 406 412 413 414 0
-411 -414 0
-411 -413 0
-411 -406 0
-411 -412 0
412 406 -407 0
412 -406 407 0
-412 -406 -407 0
-412 406 407 0
413 -404 -405 0
413 404 405 0
-413 404 -405 0
-413 -404 405 0
414 402 -403 0
414 -402 403 0
-414 -402 -403 0
-414 402 403 0
415 412 -413 0
415 -412 413 0
-415 -412 -413 0
-415 412 413 0
416 351 -408 417 0
416 351 408 -417 419 0
416 -351 -408 -417 0
416 -408 417 419 0
-416 408 417 0
-416 -351 408 0
-416 351 -408 -417 0
-416 408 -419 0
-416 -351 417 -419 0
417 414 -418 0
-417 -414 0
-417 418 0
418 412 413 0
-418 -412 0
-418 -413 0
419 -413 -414 0
419 412 413 414 0
419 -406 -412 -414 0
-419 -413 414 0
-419 412 413 -414 0
-419 -412 414 0
-419 406 413 -414 0
420 421 422 0
-420 -421 0
-420 -422 0
421 -412 350 0
421 350 -416 0
-421 -350 0
-421 412 416 0
422 -426 -430 0
422 423 430 0
-422 -423 430 0
-422 426 -430 0
423 394 356 425 0
423 -394 356 424 0
-423 -356 0
-423 394 -425 0
-423 -394 -424 0
424 -388 397 0
424 552 -397 0
-424 -552 -397 0
-424 388 397 0
425 -357 397 0
425 -390 -397 0
-425 357 397 0
-425 390 -397 0
426 -394 -356 0
426 356 -428 0
426 -356 427 0
-426 356 428 0
-426 394 -356 -427 0
427 -552 397 0
-427 552 0
-427 -397 0
428 -357 -378 -429 0
428 -357 -378 394 0
-428 357 0
-428 378 0
-428 -394 429 0
429 -390 397 0
429 -388 -397 0
-429 390 397 0
-429 388 -397 0
430 406 350 416 0
-430 -406 0
-430 -416 0
-430 -350 0
431 -432 -437 0
-431 432 0
-431 437 0
432 349 433 0
-432 -349 0
-432 -433 0
433 421 -434 0
433 -421 436 0
-433 -421 -436 0
-433 421 434 0
434 435 430 0
434 423 -430 0
-434 -423 -430 0
-434 -435 430 0
435 394 356 429 0
435 -394 356 -427 0
-435 -356 0
-435 394 -429 0
-435 -394 427 0
436 426 430 0
-436 -426 0
-436 -430 0
437 438 -443 0
-437 -438 0
-437 443 0
438 349 -439 0
438 -349 442 0
-438 -349 -442 0
-438 349 439 0
439 -421 -434 0
439 421 440 0
-439 421 -440 0
-439 -421 434 0
440 -441 -430 0
-440 441 0
-440 430 0
441 394 356 424 0
-441 -394 0
-441 -424 0
-441 -356 0
442 421 -436 0
-442 -421 0
-442 436 0
443 349 444 0
-443 -349 0
-443 -444 0
444 421 -445 0
444 -421 -422 0
-444 -421 422 0
-444 421 445 0
445 441 430 0
445 435 -430 0
-445 -435 -430 0
-445 -441 430 0
446 -447 -448 0
-446 447 0
-446 448 0
447 349 -442 0
-447 -349 0
-447 442 0
448 -348 -431 0
-448 348 0
-448 431 0
449 552 -388 -378 -450 0
-449 -552 0
-449 450 0
-449 378 0
-449 388 0
450 -390 -357 0
-450 390 0
-450 357 0
451 452 -226 -454 0
451 453 -226 -454 0
-451 454 0
-451 226 0
-451 -452 -453 0
452 525 526 527 0
-452 -525 0
-452 -527 0
-452 -526 0
453 -528 -529 -530 0
-453 528 0
-453 529 0
-453 530 0
454 -535 -536 -537 0
-454 535 0
-454 536 0
-454 537 0
455 453 226 454 0
455 453 5 -226 0
-455 -453 0
-455 -5 -226 0
-455 226 -454 0
456 -457 -455 0
-456 457 0
-456 455 0
457 458 451 0
457 530 -451 0
-457 -458 451 0
-457 -530 -451 0
458 214 254 -459 0
458 -530 214 -254 0
-458 -214 0
-458 254 459 0
-458 530 -254 0
459 460 -462 449 0
-459 -460 0
-459 462 0
-459 -449 0
460 -461 446 0
-460 461 0
-460 -446 0
461 -447 -448 0
461 447 448 0
-461 447 -448 0
-461 -447 448 0
462 463 -464 0
462 -463 464 0
-462 -463 -464 0
-462 463 464 0
463 -413 -350 0
-463 413 0
-463 350 0
464 -465 -466 0
-464 465 0
-464 466 0
465 -412 -350 0
-465 412 0
-465 350 0
466 467 -446 0
-466 -467 0
-466 446 0
467 406 -350 0
-467 -406 0
-467 350 0
468 469 473 0
-468 -469 0
-468 -473 0
469 -470 -455 0
-469 470 0
-469 455 0
470 471 451 0
470 528 -451 0
-470 -471 451 0
-470 -528 -451 0
471 214 254 -472 0
471 -528 214 -254 0
-471 -214 0
-471 254 472 0
-471 528 -254 0
472 467 446 460 449 0
472 -467 -446 460 449 0
-472 -460 0
-472 -467 446 0
-472 -449 0
-472 467 -446 0
473 -474 -455 0
-473 474 0
-473 455 0
474 475 451 0
474 529 -451 0
-474 -475 451 0
-474 -529 -451 0
475 214 254 -476 0
475 -529 214 -254 0
-475 -214 0
-475 254 476 0
-475 529 -254 0
476 465 460 -466 449 0
476 -465 460 466 449 0
-476 -460 0
-476 -465 -466 0
-476 -449 0
-476 465 466 0
477 478 487 0
-477 -478 0
-477 -487 0
478 479 -455 0
-478 -479 0
-478 455 0
479 480 451 0
479 525 -451 0
-479 -480 451 0
-479 -525 -451 0
480 214 254 -481 0
480 -525 214 -254 0
-480 -214 0
-480 254 481 0
-480 525 -254 0
481 -482 449 0
-481 482 0
-481 -449 0
482 443 -483 446 0
482 -443 483 446 0
-482 -446 0
-482 443 483 0
-482 -443 -483 0
483 349 439 484 0
483 -349 -442 484 0
-483 -484 0
-483 349 -439 0
-483 -349 442 0
484 349 485 443 0
484 485 -486 443 0
-484 -443 0
-484 -485 0
-484 -349 486 0
485 -421 -440 0
485 -421 445 0
-485 421 0
-485 440 -445 0
486 -439 -444 -433 420 0
-486 433 0
-486 -420 0
-486 439 0
-486 444 0
487 488 -455 0
-487 -488 0
-487 455 0
488 489 451 0
488 526 -451 0
-488 -489 451 0
-488 -526 -451 0
489 214 254 -490 0
489 -526 214 -254 0
-489 -214 0
-489 254 490 0
-489 526 -254 0
490 -491 449 0
-490 491 0
-490 -449 0
491 492 446 0
-491 -492 0
-491 -446 0
492 -432 -437 0
492 432 437 0
-492 432 -437 0
-492 -432 437 0
493 524 497 -501 0
493 524 -494 497 0
493 -494 497 -501 0
-493 494 501 0
-493 -524 501 0
-493 -497 0
-493 -524 494 0
494 495 -455 0
-494 -495 0
-494 455 0
495 531 -451 0
495 214 -496 451 0
495 531 -214 0
-495 -531 -214 0
-495 -531 -451 0
-495 214 496 451 0
496 531 -358 0
496 -531 254 358 449 0
496 531 -254 0
496 531 -449 0
-496 -531 -254 0
-496 531 254 358 449 0
-496 -531 -449 0
-496 -531 -358 0
497 522 523 -498 -499 0
-497 -522 0
-497 499 0
-497 498 0
-497 -523 0
498 518 519 520 521 0
-498 -521 0
-498 -520 0
-498 -518 0
-498 -519 0
499 -343 -469 -477 -500 0
-499 500 0
-499 343 0
-499 477 0
-499 469 0
500 -474 -456 0
-500 474 0
-500 456 0
501 502 -503 0
501 -503 -504 0
501 502 -504 0
-501 503 504 0
-501 -502 503 0
-501 -502 504 0
502 -523 -524 0
502 523 524 0
-502 523 -524 0
-502 -523 524 0
503 457 -494 0
503 -457 -455 494 0
-503 -457 -494 0
-503 457 494 0
-503 -457 455 0
504 505 -506 0
504 -506 -507 0
504 505 -507 0
-504 506 507 0
-504 -505 506 0
-504 -505 507 0
505 -522 -524 0
505 522 524 0
-505 522 -524 0
-505 -522 524 0
506 474 -494 0
506 -474 -455 494 0
-506 -474 -494 0
-506 474 494 0
-506 -474 455 0
507 508 -509 0
507 -509 -510 0
507 508 -510 0
-507 509 510 0
-507 -508 509 0
-507 -508 510 0
508 -521 -524 0
508 521 524 0
-508 521 -524 0
-508 -521 524 0
509 470 -494 0
509 -470 -455 494 0
-509 -470 -494 0
-509 470 494 0
-509 -470 455 0
510 511 -512 0
510 -512 -513 0
510 511 -513 0
-510 512 513 0
-510 -511 512 0
-510 -511 513 0
511 -520 -524 0
511 520 524 0
-511 520 -524 0
-511 -520 524 0
512 343 -494 0
512 -343 -455 494 0
-512 -343 -494 0
-512 343 494 0
-512 -343 455 0
513 515 -517 0
513 514 -516 -517 0
513 514 515 -516 0
-513 -514 -515 0
-513 -514 517 0
-513 -515 517 0
-513 -515 516 0
-513 516 517 0
514 -518 -524 0
514 518 524 0
-514 518 -524 0
-514 -518 524 0
515 -519 -524 0
515 519 524 0
-515 519 -524 0
-515 -519 524 0
516 -479 494 0
516 479 455 0
516 479 495 0
-516 -479 -494 0
-516 479 -495 -455 0
517 -488 494 0
517 488 455 0
517 488 495 0
-517 -488 -494 0
-517 488 -495 -455 0
557 0
2 0

